p cnf 1300 2355
-1 13 -1103 0
-1 13 -1104 0
-2 13 -1103 0
-2 14 -1104 0
-3 14 -1103 0
-3 15 -1104 0
-4 15 -1103 0
-4 16 -1104 0
-5 16 -1103 0
-5 17 -1104 0
-6 17 -1103 0
-6 18 -1104 0
-7 18 -1103 0
-7 19 -1104 0
-8 19 -1103 0
-8 20 -1104 0
-9 20 -1103 0
-9 21 -1104 0
-10 21 -1103 0
-10 22 -1104 0
-11 22 -1103 0
-11 12 -1104 0
-12 24 -1105 0
-12 24 -1106 0
-13 24 -1105 0
-13 25 -1106 0
-14 25 -1105 0
-14 26 -1106 0
-15 26 -1105 0
-15 27 -1106 0
-16 27 -1105 0
-16 28 -1106 0
-17 28 -1105 0
-17 29 -1106 0
-18 29 -1105 0
-18 30 -1106 0
-19 30 -1105 0
-19 31 -1106 0
-20 31 -1105 0
-20 32 -1106 0
-21 32 -1105 0
-21 33 -1106 0
-22 33 -1105 0
-22 23 -1106 0
-23 35 -1107 0
-23 35 -1108 0
-24 35 -1107 0
-24 36 -1108 0
-25 36 -1107 0
-25 37 -1108 0
-26 37 -1107 0
-26 38 -1108 0
-27 38 -1107 0
-27 39 -1108 0
-28 39 -1107 0
-28 40 -1108 0
-29 40 -1107 0
-29 41 -1108 0
-30 41 -1107 0
-30 42 -1108 0
-31 42 -1107 0
-31 43 -1108 0
-32 43 -1107 0
-32 44 -1108 0
-33 44 -1107 0
-33 34 -1108 0
-34 46 -1109 0
-34 46 -1110 0
-35 46 -1109 0
-35 47 -1110 0
-36 47 -1109 0
-36 48 -1110 0
-37 48 -1109 0
-37 49 -1110 0
-38 49 -1109 0
-38 50 -1110 0
-39 50 -1109 0
-39 51 -1110 0
-40 51 -1109 0
-40 52 -1110 0
-41 52 -1109 0
-41 53 -1110 0
-42 53 -1109 0
-42 54 -1110 0
-43 54 -1109 0
-43 55 -1110 0
-44 55 -1109 0
-44 45 -1110 0
-45 57 -1111 0
-45 57 -1112 0
-46 57 -1111 0
-46 58 -1112 0
-47 58 -1111 0
-47 59 -1112 0
-48 59 -1111 0
-48 60 -1112 0
-49 60 -1111 0
-49 61 -1112 0
-50 61 -1111 0
-50 62 -1112 0
-51 62 -1111 0
-51 63 -1112 0
-52 63 -1111 0
-52 64 -1112 0
-53 64 -1111 0
-53 65 -1112 0
-54 65 -1111 0
-54 66 -1112 0
-55 66 -1111 0
-55 56 -1112 0
-56 68 -1113 0
-56 68 -1114 0
-57 68 -1113 0
-57 69 -1114 0
-58 69 -1113 0
-58 70 -1114 0
-59 70 -1113 0
-59 71 -1114 0
-60 71 -1113 0
-60 72 -1114 0
-61 72 -1113 0
-61 73 -1114 0
-62 73 -1113 0
-62 74 -1114 0
-63 74 -1113 0
-63 75 -1114 0
-64 75 -1113 0
-64 76 -1114 0
-65 76 -1113 0
-65 77 -1114 0
-66 77 -1113 0
-66 67 -1114 0
-67 79 -1115 0
-67 79 -1116 0
-68 79 -1115 0
-68 80 -1116 0
-69 80 -1115 0
-69 81 -1116 0
-70 81 -1115 0
-70 82 -1116 0
-71 82 -1115 0
-71 83 -1116 0
-72 83 -1115 0
-72 84 -1116 0
-73 84 -1115 0
-73 85 -1116 0
-74 85 -1115 0
-74 86 -1116 0
-75 86 -1115 0
-75 87 -1116 0
-76 87 -1115 0
-76 88 -1116 0
-77 88 -1115 0
-77 78 -1116 0
-78 90 -1117 0
-78 90 -1118 0
-79 90 -1117 0
-79 91 -1118 0
-80 91 -1117 0
-80 92 -1118 0
-81 92 -1117 0
-81 93 -1118 0
-82 93 -1117 0
-82 94 -1118 0
-83 94 -1117 0
-83 95 -1118 0
-84 95 -1117 0
-84 96 -1118 0
-85 96 -1117 0
-85 97 -1118 0
-86 97 -1117 0
-86 98 -1118 0
-87 98 -1117 0
-87 99 -1118 0
-88 99 -1117 0
-88 89 -1118 0
-89 101 -1119 0
-89 101 -1120 0
-90 101 -1119 0
-90 102 -1120 0
-91 102 -1119 0
-91 103 -1120 0
-92 103 -1119 0
-92 104 -1120 0
-93 104 -1119 0
-93 105 -1120 0
-94 105 -1119 0
-94 106 -1120 0
-95 106 -1119 0
-95 107 -1120 0
-96 107 -1119 0
-96 108 -1120 0
-97 108 -1119 0
-97 109 -1120 0
-98 109 -1119 0
-98 110 -1120 0
-99 110 -1119 0
-99 100 -1120 0
-100 112 -1121 0
-100 112 -1122 0
-101 112 -1121 0
-101 113 -1122 0
-102 113 -1121 0
-102 114 -1122 0
-103 114 -1121 0
-103 115 -1122 0
-104 115 -1121 0
-104 116 -1122 0
-105 116 -1121 0
-105 117 -1122 0
-106 117 -1121 0
-106 118 -1122 0
-107 118 -1121 0
-107 119 -1122 0
-108 119 -1121 0
-108 120 -1122 0
-109 120 -1121 0
-109 121 -1122 0
-110 121 -1121 0
-110 111 -1122 0
-111 123 -1123 0
-111 123 -1124 0
-112 123 -1123 0
-112 124 -1124 0
-113 124 -1123 0
-113 125 -1124 0
-114 125 -1123 0
-114 126 -1124 0
-115 126 -1123 0
-115 127 -1124 0
-116 127 -1123 0
-116 128 -1124 0
-117 128 -1123 0
-117 129 -1124 0
-118 129 -1123 0
-118 130 -1124 0
-119 130 -1123 0
-119 131 -1124 0
-120 131 -1123 0
-120 132 -1124 0
-121 132 -1123 0
-121 122 -1124 0
-122 134 -1125 0
-122 134 -1126 0
-123 134 -1125 0
-123 135 -1126 0
-124 135 -1125 0
-124 136 -1126 0
-125 136 -1125 0
-125 137 -1126 0
-126 137 -1125 0
-126 138 -1126 0
-127 138 -1125 0
-127 139 -1126 0
-128 139 -1125 0
-128 140 -1126 0
-129 140 -1125 0
-129 141 -1126 0
-130 141 -1125 0
-130 142 -1126 0
-131 142 -1125 0
-131 143 -1126 0
-132 143 -1125 0
-132 133 -1126 0
-133 145 -1127 0
-133 145 -1128 0
-134 145 -1127 0
-134 146 -1128 0
-135 146 -1127 0
-135 147 -1128 0
-136 147 -1127 0
-136 148 -1128 0
-137 148 -1127 0
-137 149 -1128 0
-138 149 -1127 0
-138 150 -1128 0
-139 150 -1127 0
-139 151 -1128 0
-140 151 -1127 0
-140 152 -1128 0
-141 152 -1127 0
-141 153 -1128 0
-142 153 -1127 0
-142 154 -1128 0
-143 154 -1127 0
-143 144 -1128 0
-144 156 -1129 0
-144 156 -1130 0
-145 156 -1129 0
-145 157 -1130 0
-146 157 -1129 0
-146 158 -1130 0
-147 158 -1129 0
-147 159 -1130 0
-148 159 -1129 0
-148 160 -1130 0
-149 160 -1129 0
-149 161 -1130 0
-150 161 -1129 0
-150 162 -1130 0
-151 162 -1129 0
-151 163 -1130 0
-152 163 -1129 0
-152 164 -1130 0
-153 164 -1129 0
-153 165 -1130 0
-154 165 -1129 0
-154 155 -1130 0
-155 167 -1131 0
-155 167 -1132 0
-156 167 -1131 0
-156 168 -1132 0
-157 168 -1131 0
-157 169 -1132 0
-158 169 -1131 0
-158 170 -1132 0
-159 170 -1131 0
-159 171 -1132 0
-160 171 -1131 0
-160 172 -1132 0
-161 172 -1131 0
-161 173 -1132 0
-162 173 -1131 0
-162 174 -1132 0
-163 174 -1131 0
-163 175 -1132 0
-164 175 -1131 0
-164 176 -1132 0
-165 176 -1131 0
-165 166 -1132 0
-166 178 -1133 0
-166 178 -1134 0
-167 178 -1133 0
-167 179 -1134 0
-168 179 -1133 0
-168 180 -1134 0
-169 180 -1133 0
-169 181 -1134 0
-170 181 -1133 0
-170 182 -1134 0
-171 182 -1133 0
-171 183 -1134 0
-172 183 -1133 0
-172 184 -1134 0
-173 184 -1133 0
-173 185 -1134 0
-174 185 -1133 0
-174 186 -1134 0
-175 186 -1133 0
-175 187 -1134 0
-176 187 -1133 0
-176 177 -1134 0
-177 189 -1135 0
-177 189 -1136 0
-178 189 -1135 0
-178 190 -1136 0
-179 190 -1135 0
-179 191 -1136 0
-180 191 -1135 0
-180 192 -1136 0
-181 192 -1135 0
-181 193 -1136 0
-182 193 -1135 0
-182 194 -1136 0
-183 194 -1135 0
-183 195 -1136 0
-184 195 -1135 0
-184 196 -1136 0
-185 196 -1135 0
-185 197 -1136 0
-186 197 -1135 0
-186 198 -1136 0
-187 198 -1135 0
-187 188 -1136 0
-188 200 -1137 0
-188 200 -1138 0
-189 200 -1137 0
-189 201 -1138 0
-190 201 -1137 0
-190 202 -1138 0
-191 202 -1137 0
-191 203 -1138 0
-192 203 -1137 0
-192 204 -1138 0
-193 204 -1137 0
-193 205 -1138 0
-194 205 -1137 0
-194 206 -1138 0
-195 206 -1137 0
-195 207 -1138 0
-196 207 -1137 0
-196 208 -1138 0
-197 208 -1137 0
-197 209 -1138 0
-198 209 -1137 0
-198 199 -1138 0
-199 211 -1139 0
-199 211 -1140 0
-200 211 -1139 0
-200 212 -1140 0
-201 212 -1139 0
-201 213 -1140 0
-202 213 -1139 0
-202 214 -1140 0
-203 214 -1139 0
-203 215 -1140 0
-204 215 -1139 0
-204 216 -1140 0
-205 216 -1139 0
-205 217 -1140 0
-206 217 -1139 0
-206 218 -1140 0
-207 218 -1139 0
-207 219 -1140 0
-208 219 -1139 0
-208 220 -1140 0
-209 220 -1139 0
-209 210 -1140 0
-210 222 -1141 0
-210 222 -1142 0
-211 222 -1141 0
-211 223 -1142 0
-212 223 -1141 0
-212 224 -1142 0
-213 224 -1141 0
-213 225 -1142 0
-214 225 -1141 0
-214 226 -1142 0
-215 226 -1141 0
-215 227 -1142 0
-216 227 -1141 0
-216 228 -1142 0
-217 228 -1141 0
-217 229 -1142 0
-218 229 -1141 0
-218 230 -1142 0
-219 230 -1141 0
-219 231 -1142 0
-220 231 -1141 0
-220 221 -1142 0
-221 233 -1143 0
-221 233 -1144 0
-222 233 -1143 0
-222 234 -1144 0
-223 234 -1143 0
-223 235 -1144 0
-224 235 -1143 0
-224 236 -1144 0
-225 236 -1143 0
-225 237 -1144 0
-226 237 -1143 0
-226 238 -1144 0
-227 238 -1143 0
-227 239 -1144 0
-228 239 -1143 0
-228 240 -1144 0
-229 240 -1143 0
-229 241 -1144 0
-230 241 -1143 0
-230 242 -1144 0
-231 242 -1143 0
-231 232 -1144 0
-232 244 -1145 0
-232 244 -1146 0
-233 244 -1145 0
-233 245 -1146 0
-234 245 -1145 0
-234 246 -1146 0
-235 246 -1145 0
-235 247 -1146 0
-236 247 -1145 0
-236 248 -1146 0
-237 248 -1145 0
-237 249 -1146 0
-238 249 -1145 0
-238 250 -1146 0
-239 250 -1145 0
-239 251 -1146 0
-240 251 -1145 0
-240 252 -1146 0
-241 252 -1145 0
-241 253 -1146 0
-242 253 -1145 0
-242 243 -1146 0
-243 255 -1147 0
-243 255 -1148 0
-244 255 -1147 0
-244 256 -1148 0
-245 256 -1147 0
-245 257 -1148 0
-246 257 -1147 0
-246 258 -1148 0
-247 258 -1147 0
-247 259 -1148 0
-248 259 -1147 0
-248 260 -1148 0
-249 260 -1147 0
-249 261 -1148 0
-250 261 -1147 0
-250 262 -1148 0
-251 262 -1147 0
-251 263 -1148 0
-252 263 -1147 0
-252 264 -1148 0
-253 264 -1147 0
-253 254 -1148 0
-254 266 -1149 0
-254 266 -1150 0
-255 266 -1149 0
-255 267 -1150 0
-256 267 -1149 0
-256 268 -1150 0
-257 268 -1149 0
-257 269 -1150 0
-258 269 -1149 0
-258 270 -1150 0
-259 270 -1149 0
-259 271 -1150 0
-260 271 -1149 0
-260 272 -1150 0
-261 272 -1149 0
-261 273 -1150 0
-262 273 -1149 0
-262 274 -1150 0
-263 274 -1149 0
-263 275 -1150 0
-264 275 -1149 0
-264 265 -1150 0
-265 277 -1151 0
-265 277 -1152 0
-266 277 -1151 0
-266 278 -1152 0
-267 278 -1151 0
-267 279 -1152 0
-268 279 -1151 0
-268 280 -1152 0
-269 280 -1151 0
-269 281 -1152 0
-270 281 -1151 0
-270 282 -1152 0
-271 282 -1151 0
-271 283 -1152 0
-272 283 -1151 0
-272 284 -1152 0
-273 284 -1151 0
-273 285 -1152 0
-274 285 -1151 0
-274 286 -1152 0
-275 286 -1151 0
-275 276 -1152 0
-276 288 -1153 0
-276 288 -1154 0
-277 288 -1153 0
-277 289 -1154 0
-278 289 -1153 0
-278 290 -1154 0
-279 290 -1153 0
-279 291 -1154 0
-280 291 -1153 0
-280 292 -1154 0
-281 292 -1153 0
-281 293 -1154 0
-282 293 -1153 0
-282 294 -1154 0
-283 294 -1153 0
-283 295 -1154 0
-284 295 -1153 0
-284 296 -1154 0
-285 296 -1153 0
-285 297 -1154 0
-286 297 -1153 0
-286 287 -1154 0
-287 299 -1155 0
-287 299 -1156 0
-288 299 -1155 0
-288 300 -1156 0
-289 300 -1155 0
-289 301 -1156 0
-290 301 -1155 0
-290 302 -1156 0
-291 302 -1155 0
-291 303 -1156 0
-292 303 -1155 0
-292 304 -1156 0
-293 304 -1155 0
-293 305 -1156 0
-294 305 -1155 0
-294 306 -1156 0
-295 306 -1155 0
-295 307 -1156 0
-296 307 -1155 0
-296 308 -1156 0
-297 308 -1155 0
-297 298 -1156 0
-298 310 -1157 0
-298 310 -1158 0
-299 310 -1157 0
-299 311 -1158 0
-300 311 -1157 0
-300 312 -1158 0
-301 312 -1157 0
-301 313 -1158 0
-302 313 -1157 0
-302 314 -1158 0
-303 314 -1157 0
-303 315 -1158 0
-304 315 -1157 0
-304 316 -1158 0
-305 316 -1157 0
-305 317 -1158 0
-306 317 -1157 0
-306 318 -1158 0
-307 318 -1157 0
-307 319 -1158 0
-308 319 -1157 0
-308 309 -1158 0
-309 321 -1159 0
-309 321 -1160 0
-310 321 -1159 0
-310 322 -1160 0
-311 322 -1159 0
-311 323 -1160 0
-312 323 -1159 0
-312 324 -1160 0
-313 324 -1159 0
-313 325 -1160 0
-314 325 -1159 0
-314 326 -1160 0
-315 326 -1159 0
-315 327 -1160 0
-316 327 -1159 0
-316 328 -1160 0
-317 328 -1159 0
-317 329 -1160 0
-318 329 -1159 0
-318 330 -1160 0
-319 330 -1159 0
-319 320 -1160 0
-320 332 -1161 0
-320 332 -1162 0
-321 332 -1161 0
-321 333 -1162 0
-322 333 -1161 0
-322 334 -1162 0
-323 334 -1161 0
-323 335 -1162 0
-324 335 -1161 0
-324 336 -1162 0
-325 336 -1161 0
-325 337 -1162 0
-326 337 -1161 0
-326 338 -1162 0
-327 338 -1161 0
-327 339 -1162 0
-328 339 -1161 0
-328 340 -1162 0
-329 340 -1161 0
-329 341 -1162 0
-330 341 -1161 0
-330 331 -1162 0
-331 343 -1163 0
-331 343 -1164 0
-332 343 -1163 0
-332 344 -1164 0
-333 344 -1163 0
-333 345 -1164 0
-334 345 -1163 0
-334 346 -1164 0
-335 346 -1163 0
-335 347 -1164 0
-336 347 -1163 0
-336 348 -1164 0
-337 348 -1163 0
-337 349 -1164 0
-338 349 -1163 0
-338 350 -1164 0
-339 350 -1163 0
-339 351 -1164 0
-340 351 -1163 0
-340 352 -1164 0
-341 352 -1163 0
-341 342 -1164 0
-342 354 -1165 0
-342 354 -1166 0
-343 354 -1165 0
-343 355 -1166 0
-344 355 -1165 0
-344 356 -1166 0
-345 356 -1165 0
-345 357 -1166 0
-346 357 -1165 0
-346 358 -1166 0
-347 358 -1165 0
-347 359 -1166 0
-348 359 -1165 0
-348 360 -1166 0
-349 360 -1165 0
-349 361 -1166 0
-350 361 -1165 0
-350 362 -1166 0
-351 362 -1165 0
-351 363 -1166 0
-352 363 -1165 0
-352 353 -1166 0
-353 365 -1167 0
-353 365 -1168 0
-354 365 -1167 0
-354 366 -1168 0
-355 366 -1167 0
-355 367 -1168 0
-356 367 -1167 0
-356 368 -1168 0
-357 368 -1167 0
-357 369 -1168 0
-358 369 -1167 0
-358 370 -1168 0
-359 370 -1167 0
-359 371 -1168 0
-360 371 -1167 0
-360 372 -1168 0
-361 372 -1167 0
-361 373 -1168 0
-362 373 -1167 0
-362 374 -1168 0
-363 374 -1167 0
-363 364 -1168 0
-364 376 -1169 0
-364 376 -1170 0
-365 376 -1169 0
-365 377 -1170 0
-366 377 -1169 0
-366 378 -1170 0
-367 378 -1169 0
-367 379 -1170 0
-368 379 -1169 0
-368 380 -1170 0
-369 380 -1169 0
-369 381 -1170 0
-370 381 -1169 0
-370 382 -1170 0
-371 382 -1169 0
-371 383 -1170 0
-372 383 -1169 0
-372 384 -1170 0
-373 384 -1169 0
-373 385 -1170 0
-374 385 -1169 0
-374 375 -1170 0
-375 387 -1171 0
-375 387 -1172 0
-376 387 -1171 0
-376 388 -1172 0
-377 388 -1171 0
-377 389 -1172 0
-378 389 -1171 0
-378 390 -1172 0
-379 390 -1171 0
-379 391 -1172 0
-380 391 -1171 0
-380 392 -1172 0
-381 392 -1171 0
-381 393 -1172 0
-382 393 -1171 0
-382 394 -1172 0
-383 394 -1171 0
-383 395 -1172 0
-384 395 -1171 0
-384 396 -1172 0
-385 396 -1171 0
-385 386 -1172 0
-386 398 -1173 0
-386 398 -1174 0
-387 398 -1173 0
-387 399 -1174 0
-388 399 -1173 0
-388 400 -1174 0
-389 400 -1173 0
-389 401 -1174 0
-390 401 -1173 0
-390 402 -1174 0
-391 402 -1173 0
-391 403 -1174 0
-392 403 -1173 0
-392 404 -1174 0
-393 404 -1173 0
-393 405 -1174 0
-394 405 -1173 0
-394 406 -1174 0
-395 406 -1173 0
-395 407 -1174 0
-396 407 -1173 0
-396 397 -1174 0
-397 409 -1175 0
-397 409 -1176 0
-398 409 -1175 0
-398 410 -1176 0
-399 410 -1175 0
-399 411 -1176 0
-400 411 -1175 0
-400 412 -1176 0
-401 412 -1175 0
-401 413 -1176 0
-402 413 -1175 0
-402 414 -1176 0
-403 414 -1175 0
-403 415 -1176 0
-404 415 -1175 0
-404 416 -1176 0
-405 416 -1175 0
-405 417 -1176 0
-406 417 -1175 0
-406 418 -1176 0
-407 418 -1175 0
-407 408 -1176 0
-408 420 -1177 0
-408 420 -1178 0
-409 420 -1177 0
-409 421 -1178 0
-410 421 -1177 0
-410 422 -1178 0
-411 422 -1177 0
-411 423 -1178 0
-412 423 -1177 0
-412 424 -1178 0
-413 424 -1177 0
-413 425 -1178 0
-414 425 -1177 0
-414 426 -1178 0
-415 426 -1177 0
-415 427 -1178 0
-416 427 -1177 0
-416 428 -1178 0
-417 428 -1177 0
-417 429 -1178 0
-418 429 -1177 0
-418 419 -1178 0
-419 431 -1179 0
-419 431 -1180 0
-420 431 -1179 0
-420 432 -1180 0
-421 432 -1179 0
-421 433 -1180 0
-422 433 -1179 0
-422 434 -1180 0
-423 434 -1179 0
-423 435 -1180 0
-424 435 -1179 0
-424 436 -1180 0
-425 436 -1179 0
-425 437 -1180 0
-426 437 -1179 0
-426 438 -1180 0
-427 438 -1179 0
-427 439 -1180 0
-428 439 -1179 0
-428 440 -1180 0
-429 440 -1179 0
-429 430 -1180 0
-430 442 -1181 0
-430 442 -1182 0
-431 442 -1181 0
-431 443 -1182 0
-432 443 -1181 0
-432 444 -1182 0
-433 444 -1181 0
-433 445 -1182 0
-434 445 -1181 0
-434 446 -1182 0
-435 446 -1181 0
-435 447 -1182 0
-436 447 -1181 0
-436 448 -1182 0
-437 448 -1181 0
-437 449 -1182 0
-438 449 -1181 0
-438 450 -1182 0
-439 450 -1181 0
-439 451 -1182 0
-440 451 -1181 0
-440 441 -1182 0
-441 453 -1183 0
-441 453 -1184 0
-442 453 -1183 0
-442 454 -1184 0
-443 454 -1183 0
-443 455 -1184 0
-444 455 -1183 0
-444 456 -1184 0
-445 456 -1183 0
-445 457 -1184 0
-446 457 -1183 0
-446 458 -1184 0
-447 458 -1183 0
-447 459 -1184 0
-448 459 -1183 0
-448 460 -1184 0
-449 460 -1183 0
-449 461 -1184 0
-450 461 -1183 0
-450 462 -1184 0
-451 462 -1183 0
-451 452 -1184 0
-452 464 -1185 0
-452 464 -1186 0
-453 464 -1185 0
-453 465 -1186 0
-454 465 -1185 0
-454 466 -1186 0
-455 466 -1185 0
-455 467 -1186 0
-456 467 -1185 0
-456 468 -1186 0
-457 468 -1185 0
-457 469 -1186 0
-458 469 -1185 0
-458 470 -1186 0
-459 470 -1185 0
-459 471 -1186 0
-460 471 -1185 0
-460 472 -1186 0
-461 472 -1185 0
-461 473 -1186 0
-462 473 -1185 0
-462 463 -1186 0
-463 475 -1187 0
-463 475 -1188 0
-464 475 -1187 0
-464 476 -1188 0
-465 476 -1187 0
-465 477 -1188 0
-466 477 -1187 0
-466 478 -1188 0
-467 478 -1187 0
-467 479 -1188 0
-468 479 -1187 0
-468 480 -1188 0
-469 480 -1187 0
-469 481 -1188 0
-470 481 -1187 0
-470 482 -1188 0
-471 482 -1187 0
-471 483 -1188 0
-472 483 -1187 0
-472 484 -1188 0
-473 484 -1187 0
-473 474 -1188 0
-474 486 -1189 0
-474 486 -1190 0
-475 486 -1189 0
-475 487 -1190 0
-476 487 -1189 0
-476 488 -1190 0
-477 488 -1189 0
-477 489 -1190 0
-478 489 -1189 0
-478 490 -1190 0
-479 490 -1189 0
-479 491 -1190 0
-480 491 -1189 0
-480 492 -1190 0
-481 492 -1189 0
-481 493 -1190 0
-482 493 -1189 0
-482 494 -1190 0
-483 494 -1189 0
-483 495 -1190 0
-484 495 -1189 0
-484 485 -1190 0
-485 497 -1191 0
-485 497 -1192 0
-486 497 -1191 0
-486 498 -1192 0
-487 498 -1191 0
-487 499 -1192 0
-488 499 -1191 0
-488 500 -1192 0
-489 500 -1191 0
-489 501 -1192 0
-490 501 -1191 0
-490 502 -1192 0
-491 502 -1191 0
-491 503 -1192 0
-492 503 -1191 0
-492 504 -1192 0
-493 504 -1191 0
-493 505 -1192 0
-494 505 -1191 0
-494 506 -1192 0
-495 506 -1191 0
-495 496 -1192 0
-496 508 -1193 0
-496 508 -1194 0
-497 508 -1193 0
-497 509 -1194 0
-498 509 -1193 0
-498 510 -1194 0
-499 510 -1193 0
-499 511 -1194 0
-500 511 -1193 0
-500 512 -1194 0
-501 512 -1193 0
-501 513 -1194 0
-502 513 -1193 0
-502 514 -1194 0
-503 514 -1193 0
-503 515 -1194 0
-504 515 -1193 0
-504 516 -1194 0
-505 516 -1193 0
-505 517 -1194 0
-506 517 -1193 0
-506 507 -1194 0
-507 519 -1195 0
-507 519 -1196 0
-508 519 -1195 0
-508 520 -1196 0
-509 520 -1195 0
-509 521 -1196 0
-510 521 -1195 0
-510 522 -1196 0
-511 522 -1195 0
-511 523 -1196 0
-512 523 -1195 0
-512 524 -1196 0
-513 524 -1195 0
-513 525 -1196 0
-514 525 -1195 0
-514 526 -1196 0
-515 526 -1195 0
-515 527 -1196 0
-516 527 -1195 0
-516 528 -1196 0
-517 528 -1195 0
-517 518 -1196 0
-518 530 -1197 0
-518 530 -1198 0
-519 530 -1197 0
-519 531 -1198 0
-520 531 -1197 0
-520 532 -1198 0
-521 532 -1197 0
-521 533 -1198 0
-522 533 -1197 0
-522 534 -1198 0
-523 534 -1197 0
-523 535 -1198 0
-524 535 -1197 0
-524 536 -1198 0
-525 536 -1197 0
-525 537 -1198 0
-526 537 -1197 0
-526 538 -1198 0
-527 538 -1197 0
-527 539 -1198 0
-528 539 -1197 0
-528 529 -1198 0
-529 541 -1199 0
-529 541 -1200 0
-530 541 -1199 0
-530 542 -1200 0
-531 542 -1199 0
-531 543 -1200 0
-532 543 -1199 0
-532 544 -1200 0
-533 544 -1199 0
-533 545 -1200 0
-534 545 -1199 0
-534 546 -1200 0
-535 546 -1199 0
-535 547 -1200 0
-536 547 -1199 0
-536 548 -1200 0
-537 548 -1199 0
-537 549 -1200 0
-538 549 -1199 0
-538 550 -1200 0
-539 550 -1199 0
-539 540 -1200 0
-540 552 -1201 0
-540 552 -1202 0
-541 552 -1201 0
-541 553 -1202 0
-542 553 -1201 0
-542 554 -1202 0
-543 554 -1201 0
-543 555 -1202 0
-544 555 -1201 0
-544 556 -1202 0
-545 556 -1201 0
-545 557 -1202 0
-546 557 -1201 0
-546 558 -1202 0
-547 558 -1201 0
-547 559 -1202 0
-548 559 -1201 0
-548 560 -1202 0
-549 560 -1201 0
-549 561 -1202 0
-550 561 -1201 0
-550 551 -1202 0
-551 563 -1203 0
-551 563 -1204 0
-552 563 -1203 0
-552 564 -1204 0
-553 564 -1203 0
-553 565 -1204 0
-554 565 -1203 0
-554 566 -1204 0
-555 566 -1203 0
-555 567 -1204 0
-556 567 -1203 0
-556 568 -1204 0
-557 568 -1203 0
-557 569 -1204 0
-558 569 -1203 0
-558 570 -1204 0
-559 570 -1203 0
-559 571 -1204 0
-560 571 -1203 0
-560 572 -1204 0
-561 572 -1203 0
-561 562 -1204 0
-562 574 -1205 0
-562 574 -1206 0
-563 574 -1205 0
-563 575 -1206 0
-564 575 -1205 0
-564 576 -1206 0
-565 576 -1205 0
-565 577 -1206 0
-566 577 -1205 0
-566 578 -1206 0
-567 578 -1205 0
-567 579 -1206 0
-568 579 -1205 0
-568 580 -1206 0
-569 580 -1205 0
-569 581 -1206 0
-570 581 -1205 0
-570 582 -1206 0
-571 582 -1205 0
-571 583 -1206 0
-572 583 -1205 0
-572 573 -1206 0
-573 585 -1207 0
-573 585 -1208 0
-574 585 -1207 0
-574 586 -1208 0
-575 586 -1207 0
-575 587 -1208 0
-576 587 -1207 0
-576 588 -1208 0
-577 588 -1207 0
-577 589 -1208 0
-578 589 -1207 0
-578 590 -1208 0
-579 590 -1207 0
-579 591 -1208 0
-580 591 -1207 0
-580 592 -1208 0
-581 592 -1207 0
-581 593 -1208 0
-582 593 -1207 0
-582 594 -1208 0
-583 594 -1207 0
-583 584 -1208 0
-584 596 -1209 0
-584 596 -1210 0
-585 596 -1209 0
-585 597 -1210 0
-586 597 -1209 0
-586 598 -1210 0
-587 598 -1209 0
-587 599 -1210 0
-588 599 -1209 0
-588 600 -1210 0
-589 600 -1209 0
-589 601 -1210 0
-590 601 -1209 0
-590 602 -1210 0
-591 602 -1209 0
-591 603 -1210 0
-592 603 -1209 0
-592 604 -1210 0
-593 604 -1209 0
-593 605 -1210 0
-594 605 -1209 0
-594 595 -1210 0
-595 607 -1211 0
-595 607 -1212 0
-596 607 -1211 0
-596 608 -1212 0
-597 608 -1211 0
-597 609 -1212 0
-598 609 -1211 0
-598 610 -1212 0
-599 610 -1211 0
-599 611 -1212 0
-600 611 -1211 0
-600 612 -1212 0
-601 612 -1211 0
-601 613 -1212 0
-602 613 -1211 0
-602 614 -1212 0
-603 614 -1211 0
-603 615 -1212 0
-604 615 -1211 0
-604 616 -1212 0
-605 616 -1211 0
-605 606 -1212 0
-606 618 -1213 0
-606 618 -1214 0
-607 618 -1213 0
-607 619 -1214 0
-608 619 -1213 0
-608 620 -1214 0
-609 620 -1213 0
-609 621 -1214 0
-610 621 -1213 0
-610 622 -1214 0
-611 622 -1213 0
-611 623 -1214 0
-612 623 -1213 0
-612 624 -1214 0
-613 624 -1213 0
-613 625 -1214 0
-614 625 -1213 0
-614 626 -1214 0
-615 626 -1213 0
-615 627 -1214 0
-616 627 -1213 0
-616 617 -1214 0
-617 629 -1215 0
-617 629 -1216 0
-618 629 -1215 0
-618 630 -1216 0
-619 630 -1215 0
-619 631 -1216 0
-620 631 -1215 0
-620 632 -1216 0
-621 632 -1215 0
-621 633 -1216 0
-622 633 -1215 0
-622 634 -1216 0
-623 634 -1215 0
-623 635 -1216 0
-624 635 -1215 0
-624 636 -1216 0
-625 636 -1215 0
-625 637 -1216 0
-626 637 -1215 0
-626 638 -1216 0
-627 638 -1215 0
-627 628 -1216 0
-628 640 -1217 0
-628 640 -1218 0
-629 640 -1217 0
-629 641 -1218 0
-630 641 -1217 0
-630 642 -1218 0
-631 642 -1217 0
-631 643 -1218 0
-632 643 -1217 0
-632 644 -1218 0
-633 644 -1217 0
-633 645 -1218 0
-634 645 -1217 0
-634 646 -1218 0
-635 646 -1217 0
-635 647 -1218 0
-636 647 -1217 0
-636 648 -1218 0
-637 648 -1217 0
-637 649 -1218 0
-638 649 -1217 0
-638 639 -1218 0
-639 651 -1219 0
-639 651 -1220 0
-640 651 -1219 0
-640 652 -1220 0
-641 652 -1219 0
-641 653 -1220 0
-642 653 -1219 0
-642 654 -1220 0
-643 654 -1219 0
-643 655 -1220 0
-644 655 -1219 0
-644 656 -1220 0
-645 656 -1219 0
-645 657 -1220 0
-646 657 -1219 0
-646 658 -1220 0
-647 658 -1219 0
-647 659 -1220 0
-648 659 -1219 0
-648 660 -1220 0
-649 660 -1219 0
-649 650 -1220 0
-650 662 -1221 0
-650 662 -1222 0
-651 662 -1221 0
-651 663 -1222 0
-652 663 -1221 0
-652 664 -1222 0
-653 664 -1221 0
-653 665 -1222 0
-654 665 -1221 0
-654 666 -1222 0
-655 666 -1221 0
-655 667 -1222 0
-656 667 -1221 0
-656 668 -1222 0
-657 668 -1221 0
-657 669 -1222 0
-658 669 -1221 0
-658 670 -1222 0
-659 670 -1221 0
-659 671 -1222 0
-660 671 -1221 0
-660 661 -1222 0
-661 673 -1223 0
-661 673 -1224 0
-662 673 -1223 0
-662 674 -1224 0
-663 674 -1223 0
-663 675 -1224 0
-664 675 -1223 0
-664 676 -1224 0
-665 676 -1223 0
-665 677 -1224 0
-666 677 -1223 0
-666 678 -1224 0
-667 678 -1223 0
-667 679 -1224 0
-668 679 -1223 0
-668 680 -1224 0
-669 680 -1223 0
-669 681 -1224 0
-670 681 -1223 0
-670 682 -1224 0
-671 682 -1223 0
-671 672 -1224 0
-672 684 -1225 0
-672 684 -1226 0
-673 684 -1225 0
-673 685 -1226 0
-674 685 -1225 0
-674 686 -1226 0
-675 686 -1225 0
-675 687 -1226 0
-676 687 -1225 0
-676 688 -1226 0
-677 688 -1225 0
-677 689 -1226 0
-678 689 -1225 0
-678 690 -1226 0
-679 690 -1225 0
-679 691 -1226 0
-680 691 -1225 0
-680 692 -1226 0
-681 692 -1225 0
-681 693 -1226 0
-682 693 -1225 0
-682 683 -1226 0
-683 695 -1227 0
-683 695 -1228 0
-684 695 -1227 0
-684 696 -1228 0
-685 696 -1227 0
-685 697 -1228 0
-686 697 -1227 0
-686 698 -1228 0
-687 698 -1227 0
-687 699 -1228 0
-688 699 -1227 0
-688 700 -1228 0
-689 700 -1227 0
-689 701 -1228 0
-690 701 -1227 0
-690 702 -1228 0
-691 702 -1227 0
-691 703 -1228 0
-692 703 -1227 0
-692 704 -1228 0
-693 704 -1227 0
-693 694 -1228 0
-694 706 -1229 0
-694 706 -1230 0
-695 706 -1229 0
-695 707 -1230 0
-696 707 -1229 0
-696 708 -1230 0
-697 708 -1229 0
-697 709 -1230 0
-698 709 -1229 0
-698 710 -1230 0
-699 710 -1229 0
-699 711 -1230 0
-700 711 -1229 0
-700 712 -1230 0
-701 712 -1229 0
-701 713 -1230 0
-702 713 -1229 0
-702 714 -1230 0
-703 714 -1229 0
-703 715 -1230 0
-704 715 -1229 0
-704 705 -1230 0
-705 717 -1231 0
-705 717 -1232 0
-706 717 -1231 0
-706 718 -1232 0
-707 718 -1231 0
-707 719 -1232 0
-708 719 -1231 0
-708 720 -1232 0
-709 720 -1231 0
-709 721 -1232 0
-710 721 -1231 0
-710 722 -1232 0
-711 722 -1231 0
-711 723 -1232 0
-712 723 -1231 0
-712 724 -1232 0
-713 724 -1231 0
-713 725 -1232 0
-714 725 -1231 0
-714 726 -1232 0
-715 726 -1231 0
-715 716 -1232 0
-716 728 -1233 0
-716 728 -1234 0
-717 728 -1233 0
-717 729 -1234 0
-718 729 -1233 0
-718 730 -1234 0
-719 730 -1233 0
-719 731 -1234 0
-720 731 -1233 0
-720 732 -1234 0
-721 732 -1233 0
-721 733 -1234 0
-722 733 -1233 0
-722 734 -1234 0
-723 734 -1233 0
-723 735 -1234 0
-724 735 -1233 0
-724 736 -1234 0
-725 736 -1233 0
-725 737 -1234 0
-726 737 -1233 0
-726 727 -1234 0
-727 739 -1235 0
-727 739 -1236 0
-728 739 -1235 0
-728 740 -1236 0
-729 740 -1235 0
-729 741 -1236 0
-730 741 -1235 0
-730 742 -1236 0
-731 742 -1235 0
-731 743 -1236 0
-732 743 -1235 0
-732 744 -1236 0
-733 744 -1235 0
-733 745 -1236 0
-734 745 -1235 0
-734 746 -1236 0
-735 746 -1235 0
-735 747 -1236 0
-736 747 -1235 0
-736 748 -1236 0
-737 748 -1235 0
-737 738 -1236 0
-738 750 -1237 0
-738 750 -1238 0
-739 750 -1237 0
-739 751 -1238 0
-740 751 -1237 0
-740 752 -1238 0
-741 752 -1237 0
-741 753 -1238 0
-742 753 -1237 0
-742 754 -1238 0
-743 754 -1237 0
-743 755 -1238 0
-744 755 -1237 0
-744 756 -1238 0
-745 756 -1237 0
-745 757 -1238 0
-746 757 -1237 0
-746 758 -1238 0
-747 758 -1237 0
-747 759 -1238 0
-748 759 -1237 0
-748 749 -1238 0
-749 761 -1239 0
-749 761 -1240 0
-750 761 -1239 0
-750 762 -1240 0
-751 762 -1239 0
-751 763 -1240 0
-752 763 -1239 0
-752 764 -1240 0
-753 764 -1239 0
-753 765 -1240 0
-754 765 -1239 0
-754 766 -1240 0
-755 766 -1239 0
-755 767 -1240 0
-756 767 -1239 0
-756 768 -1240 0
-757 768 -1239 0
-757 769 -1240 0
-758 769 -1239 0
-758 770 -1240 0
-759 770 -1239 0
-759 760 -1240 0
-760 772 -1241 0
-760 772 -1242 0
-761 772 -1241 0
-761 773 -1242 0
-762 773 -1241 0
-762 774 -1242 0
-763 774 -1241 0
-763 775 -1242 0
-764 775 -1241 0
-764 776 -1242 0
-765 776 -1241 0
-765 777 -1242 0
-766 777 -1241 0
-766 778 -1242 0
-767 778 -1241 0
-767 779 -1242 0
-768 779 -1241 0
-768 780 -1242 0
-769 780 -1241 0
-769 781 -1242 0
-770 781 -1241 0
-770 771 -1242 0
-771 783 -1243 0
-771 783 -1244 0
-772 783 -1243 0
-772 784 -1244 0
-773 784 -1243 0
-773 785 -1244 0
-774 785 -1243 0
-774 786 -1244 0
-775 786 -1243 0
-775 787 -1244 0
-776 787 -1243 0
-776 788 -1244 0
-777 788 -1243 0
-777 789 -1244 0
-778 789 -1243 0
-778 790 -1244 0
-779 790 -1243 0
-779 791 -1244 0
-780 791 -1243 0
-780 792 -1244 0
-781 792 -1243 0
-781 782 -1244 0
-782 794 -1245 0
-782 794 -1246 0
-783 794 -1245 0
-783 795 -1246 0
-784 795 -1245 0
-784 796 -1246 0
-785 796 -1245 0
-785 797 -1246 0
-786 797 -1245 0
-786 798 -1246 0
-787 798 -1245 0
-787 799 -1246 0
-788 799 -1245 0
-788 800 -1246 0
-789 800 -1245 0
-789 801 -1246 0
-790 801 -1245 0
-790 802 -1246 0
-791 802 -1245 0
-791 803 -1246 0
-792 803 -1245 0
-792 793 -1246 0
-793 805 -1247 0
-793 805 -1248 0
-794 805 -1247 0
-794 806 -1248 0
-795 806 -1247 0
-795 807 -1248 0
-796 807 -1247 0
-796 808 -1248 0
-797 808 -1247 0
-797 809 -1248 0
-798 809 -1247 0
-798 810 -1248 0
-799 810 -1247 0
-799 811 -1248 0
-800 811 -1247 0
-800 812 -1248 0
-801 812 -1247 0
-801 813 -1248 0
-802 813 -1247 0
-802 814 -1248 0
-803 814 -1247 0
-803 804 -1248 0
-804 816 -1249 0
-804 816 -1250 0
-805 816 -1249 0
-805 817 -1250 0
-806 817 -1249 0
-806 818 -1250 0
-807 818 -1249 0
-807 819 -1250 0
-808 819 -1249 0
-808 820 -1250 0
-809 820 -1249 0
-809 821 -1250 0
-810 821 -1249 0
-810 822 -1250 0
-811 822 -1249 0
-811 823 -1250 0
-812 823 -1249 0
-812 824 -1250 0
-813 824 -1249 0
-813 825 -1250 0
-814 825 -1249 0
-814 815 -1250 0
-815 827 -1251 0
-815 827 -1252 0
-816 827 -1251 0
-816 828 -1252 0
-817 828 -1251 0
-817 829 -1252 0
-818 829 -1251 0
-818 830 -1252 0
-819 830 -1251 0
-819 831 -1252 0
-820 831 -1251 0
-820 832 -1252 0
-821 832 -1251 0
-821 833 -1252 0
-822 833 -1251 0
-822 834 -1252 0
-823 834 -1251 0
-823 835 -1252 0
-824 835 -1251 0
-824 836 -1252 0
-825 836 -1251 0
-825 826 -1252 0
-826 838 -1253 0
-826 838 -1254 0
-827 838 -1253 0
-827 839 -1254 0
-828 839 -1253 0
-828 840 -1254 0
-829 840 -1253 0
-829 841 -1254 0
-830 841 -1253 0
-830 842 -1254 0
-831 842 -1253 0
-831 843 -1254 0
-832 843 -1253 0
-832 844 -1254 0
-833 844 -1253 0
-833 845 -1254 0
-834 845 -1253 0
-834 846 -1254 0
-835 846 -1253 0
-835 847 -1254 0
-836 847 -1253 0
-836 837 -1254 0
-837 849 -1255 0
-837 849 -1256 0
-838 849 -1255 0
-838 850 -1256 0
-839 850 -1255 0
-839 851 -1256 0
-840 851 -1255 0
-840 852 -1256 0
-841 852 -1255 0
-841 853 -1256 0
-842 853 -1255 0
-842 854 -1256 0
-843 854 -1255 0
-843 855 -1256 0
-844 855 -1255 0
-844 856 -1256 0
-845 856 -1255 0
-845 857 -1256 0
-846 857 -1255 0
-846 858 -1256 0
-847 858 -1255 0
-847 848 -1256 0
-848 860 -1257 0
-848 860 -1258 0
-849 860 -1257 0
-849 861 -1258 0
-850 861 -1257 0
-850 862 -1258 0
-851 862 -1257 0
-851 863 -1258 0
-852 863 -1257 0
-852 864 -1258 0
-853 864 -1257 0
-853 865 -1258 0
-854 865 -1257 0
-854 866 -1258 0
-855 866 -1257 0
-855 867 -1258 0
-856 867 -1257 0
-856 868 -1258 0
-857 868 -1257 0
-857 869 -1258 0
-858 869 -1257 0
-858 859 -1258 0
-859 871 -1259 0
-859 871 -1260 0
-860 871 -1259 0
-860 872 -1260 0
-861 872 -1259 0
-861 873 -1260 0
-862 873 -1259 0
-862 874 -1260 0
-863 874 -1259 0
-863 875 -1260 0
-864 875 -1259 0
-864 876 -1260 0
-865 876 -1259 0
-865 877 -1260 0
-866 877 -1259 0
-866 878 -1260 0
-867 878 -1259 0
-867 879 -1260 0
-868 879 -1259 0
-868 880 -1260 0
-869 880 -1259 0
-869 870 -1260 0
-870 882 -1261 0
-870 882 -1262 0
-871 882 -1261 0
-871 883 -1262 0
-872 883 -1261 0
-872 884 -1262 0
-873 884 -1261 0
-873 885 -1262 0
-874 885 -1261 0
-874 886 -1262 0
-875 886 -1261 0
-875 887 -1262 0
-876 887 -1261 0
-876 888 -1262 0
-877 888 -1261 0
-877 889 -1262 0
-878 889 -1261 0
-878 890 -1262 0
-879 890 -1261 0
-879 891 -1262 0
-880 891 -1261 0
-880 881 -1262 0
-881 893 -1263 0
-881 893 -1264 0
-882 893 -1263 0
-882 894 -1264 0
-883 894 -1263 0
-883 895 -1264 0
-884 895 -1263 0
-884 896 -1264 0
-885 896 -1263 0
-885 897 -1264 0
-886 897 -1263 0
-886 898 -1264 0
-887 898 -1263 0
-887 899 -1264 0
-888 899 -1263 0
-888 900 -1264 0
-889 900 -1263 0
-889 901 -1264 0
-890 901 -1263 0
-890 902 -1264 0
-891 902 -1263 0
-891 892 -1264 0
-892 904 -1265 0
-892 904 -1266 0
-893 904 -1265 0
-893 905 -1266 0
-894 905 -1265 0
-894 906 -1266 0
-895 906 -1265 0
-895 907 -1266 0
-896 907 -1265 0
-896 908 -1266 0
-897 908 -1265 0
-897 909 -1266 0
-898 909 -1265 0
-898 910 -1266 0
-899 910 -1265 0
-899 911 -1266 0
-900 911 -1265 0
-900 912 -1266 0
-901 912 -1265 0
-901 913 -1266 0
-902 913 -1265 0
-902 903 -1266 0
-903 915 -1267 0
-903 915 -1268 0
-904 915 -1267 0
-904 916 -1268 0
-905 916 -1267 0
-905 917 -1268 0
-906 917 -1267 0
-906 918 -1268 0
-907 918 -1267 0
-907 919 -1268 0
-908 919 -1267 0
-908 920 -1268 0
-909 920 -1267 0
-909 921 -1268 0
-910 921 -1267 0
-910 922 -1268 0
-911 922 -1267 0
-911 923 -1268 0
-912 923 -1267 0
-912 924 -1268 0
-913 924 -1267 0
-913 914 -1268 0
-914 926 -1269 0
-914 926 -1270 0
-915 926 -1269 0
-915 927 -1270 0
-916 927 -1269 0
-916 928 -1270 0
-917 928 -1269 0
-917 929 -1270 0
-918 929 -1269 0
-918 930 -1270 0
-919 930 -1269 0
-919 931 -1270 0
-920 931 -1269 0
-920 932 -1270 0
-921 932 -1269 0
-921 933 -1270 0
-922 933 -1269 0
-922 934 -1270 0
-923 934 -1269 0
-923 935 -1270 0
-924 935 -1269 0
-924 925 -1270 0
-925 937 -1271 0
-925 937 -1272 0
-926 937 -1271 0
-926 938 -1272 0
-927 938 -1271 0
-927 939 -1272 0
-928 939 -1271 0
-928 940 -1272 0
-929 940 -1271 0
-929 941 -1272 0
-930 941 -1271 0
-930 942 -1272 0
-931 942 -1271 0
-931 943 -1272 0
-932 943 -1271 0
-932 944 -1272 0
-933 944 -1271 0
-933 945 -1272 0
-934 945 -1271 0
-934 946 -1272 0
-935 946 -1271 0
-935 936 -1272 0
-936 948 -1273 0
-936 948 -1274 0
-937 948 -1273 0
-937 949 -1274 0
-938 949 -1273 0
-938 950 -1274 0
-939 950 -1273 0
-939 951 -1274 0
-940 951 -1273 0
-940 952 -1274 0
-941 952 -1273 0
-941 953 -1274 0
-942 953 -1273 0
-942 954 -1274 0
-943 954 -1273 0
-943 955 -1274 0
-944 955 -1273 0
-944 956 -1274 0
-945 956 -1273 0
-945 957 -1274 0
-946 957 -1273 0
-946 947 -1274 0
-947 959 -1275 0
-947 959 -1276 0
-948 959 -1275 0
-948 960 -1276 0
-949 960 -1275 0
-949 961 -1276 0
-950 961 -1275 0
-950 962 -1276 0
-951 962 -1275 0
-951 963 -1276 0
-952 963 -1275 0
-952 964 -1276 0
-953 964 -1275 0
-953 965 -1276 0
-954 965 -1275 0
-954 966 -1276 0
-955 966 -1275 0
-955 967 -1276 0
-956 967 -1275 0
-956 968 -1276 0
-957 968 -1275 0
-957 958 -1276 0
-958 970 -1277 0
-958 970 -1278 0
-959 970 -1277 0
-959 971 -1278 0
-960 971 -1277 0
-960 972 -1278 0
-961 972 -1277 0
-961 973 -1278 0
-962 973 -1277 0
-962 974 -1278 0
-963 974 -1277 0
-963 975 -1278 0
-964 975 -1277 0
-964 976 -1278 0
-965 976 -1277 0
-965 977 -1278 0
-966 977 -1277 0
-966 978 -1278 0
-967 978 -1277 0
-967 979 -1278 0
-968 979 -1277 0
-968 969 -1278 0
-969 981 -1279 0
-969 981 -1280 0
-970 981 -1279 0
-970 982 -1280 0
-971 982 -1279 0
-971 983 -1280 0
-972 983 -1279 0
-972 984 -1280 0
-973 984 -1279 0
-973 985 -1280 0
-974 985 -1279 0
-974 986 -1280 0
-975 986 -1279 0
-975 987 -1280 0
-976 987 -1279 0
-976 988 -1280 0
-977 988 -1279 0
-977 989 -1280 0
-978 989 -1279 0
-978 990 -1280 0
-979 990 -1279 0
-979 980 -1280 0
-980 992 -1281 0
-980 992 -1282 0
-981 992 -1281 0
-981 993 -1282 0
-982 993 -1281 0
-982 994 -1282 0
-983 994 -1281 0
-983 995 -1282 0
-984 995 -1281 0
-984 996 -1282 0
-985 996 -1281 0
-985 997 -1282 0
-986 997 -1281 0
-986 998 -1282 0
-987 998 -1281 0
-987 999 -1282 0
-988 999 -1281 0
-988 1000 -1282 0
-989 1000 -1281 0
-989 1001 -1282 0
-990 1001 -1281 0
-990 991 -1282 0
-991 1003 -1283 0
-991 1003 -1284 0
-992 1003 -1283 0
-992 1004 -1284 0
-993 1004 -1283 0
-993 1005 -1284 0
-994 1005 -1283 0
-994 1006 -1284 0
-995 1006 -1283 0
-995 1007 -1284 0
-996 1007 -1283 0
-996 1008 -1284 0
-997 1008 -1283 0
-997 1009 -1284 0
-998 1009 -1283 0
-998 1010 -1284 0
-999 1010 -1283 0
-999 1011 -1284 0
-1000 1011 -1283 0
-1000 1012 -1284 0
-1001 1012 -1283 0
-1001 1002 -1284 0
-1002 1014 -1285 0
-1002 1014 -1286 0
-1003 1014 -1285 0
-1003 1015 -1286 0
-1004 1015 -1285 0
-1004 1016 -1286 0
-1005 1016 -1285 0
-1005 1017 -1286 0
-1006 1017 -1285 0
-1006 1018 -1286 0
-1007 1018 -1285 0
-1007 1019 -1286 0
-1008 1019 -1285 0
-1008 1020 -1286 0
-1009 1020 -1285 0
-1009 1021 -1286 0
-1010 1021 -1285 0
-1010 1022 -1286 0
-1011 1022 -1285 0
-1011 1023 -1286 0
-1012 1023 -1285 0
-1012 1013 -1286 0
-1013 1025 -1287 0
-1013 1025 -1288 0
-1014 1025 -1287 0
-1014 1026 -1288 0
-1015 1026 -1287 0
-1015 1027 -1288 0
-1016 1027 -1287 0
-1016 1028 -1288 0
-1017 1028 -1287 0
-1017 1029 -1288 0
-1018 1029 -1287 0
-1018 1030 -1288 0
-1019 1030 -1287 0
-1019 1031 -1288 0
-1020 1031 -1287 0
-1020 1032 -1288 0
-1021 1032 -1287 0
-1021 1033 -1288 0
-1022 1033 -1287 0
-1022 1034 -1288 0
-1023 1034 -1287 0
-1023 1024 -1288 0
-1024 1036 -1289 0
-1024 1036 -1290 0
-1025 1036 -1289 0
-1025 1037 -1290 0
-1026 1037 -1289 0
-1026 1038 -1290 0
-1027 1038 -1289 0
-1027 1039 -1290 0
-1028 1039 -1289 0
-1028 1040 -1290 0
-1029 1040 -1289 0
-1029 1041 -1290 0
-1030 1041 -1289 0
-1030 1042 -1290 0
-1031 1042 -1289 0
-1031 1043 -1290 0
-1032 1043 -1289 0
-1032 1044 -1290 0
-1033 1044 -1289 0
-1033 1045 -1290 0
-1034 1045 -1289 0
-1034 1035 -1290 0
-1035 1047 -1291 0
-1035 1047 -1292 0
-1036 1047 -1291 0
-1036 1048 -1292 0
-1037 1048 -1291 0
-1037 1049 -1292 0
-1038 1049 -1291 0
-1038 1050 -1292 0
-1039 1050 -1291 0
-1039 1051 -1292 0
-1040 1051 -1291 0
-1040 1052 -1292 0
-1041 1052 -1291 0
-1041 1053 -1292 0
-1042 1053 -1291 0
-1042 1054 -1292 0
-1043 1054 -1291 0
-1043 1055 -1292 0
-1044 1055 -1291 0
-1044 1056 -1292 0
-1045 1056 -1291 0
-1045 1046 -1292 0
-1046 1058 -1293 0
-1046 1058 -1294 0
-1047 1058 -1293 0
-1047 1059 -1294 0
-1048 1059 -1293 0
-1048 1060 -1294 0
-1049 1060 -1293 0
-1049 1061 -1294 0
-1050 1061 -1293 0
-1050 1062 -1294 0
-1051 1062 -1293 0
-1051 1063 -1294 0
-1052 1063 -1293 0
-1052 1064 -1294 0
-1053 1064 -1293 0
-1053 1065 -1294 0
-1054 1065 -1293 0
-1054 1066 -1294 0
-1055 1066 -1293 0
-1055 1067 -1294 0
-1056 1067 -1293 0
-1056 1057 -1294 0
-1057 1069 -1295 0
-1057 1069 -1296 0
-1058 1069 -1295 0
-1058 1070 -1296 0
-1059 1070 -1295 0
-1059 1071 -1296 0
-1060 1071 -1295 0
-1060 1072 -1296 0
-1061 1072 -1295 0
-1061 1073 -1296 0
-1062 1073 -1295 0
-1062 1074 -1296 0
-1063 1074 -1295 0
-1063 1075 -1296 0
-1064 1075 -1295 0
-1064 1076 -1296 0
-1065 1076 -1295 0
-1065 1077 -1296 0
-1066 1077 -1295 0
-1066 1078 -1296 0
-1067 1078 -1295 0
-1067 1068 -1296 0
-1068 1080 -1297 0
-1068 1080 -1298 0
-1069 1080 -1297 0
-1069 1081 -1298 0
-1070 1081 -1297 0
-1070 1082 -1298 0
-1071 1082 -1297 0
-1071 1083 -1298 0
-1072 1083 -1297 0
-1072 1084 -1298 0
-1073 1084 -1297 0
-1073 1085 -1298 0
-1074 1085 -1297 0
-1074 1086 -1298 0
-1075 1086 -1297 0
-1075 1087 -1298 0
-1076 1087 -1297 0
-1076 1088 -1298 0
-1077 1088 -1297 0
-1077 1089 -1298 0
-1078 1089 -1297 0
-1078 1079 -1298 0
-1079 1091 -1299 0
-1079 1091 -1300 0
-1080 1091 -1299 0
-1080 1092 -1300 0
-1081 1092 -1299 0
-1081 1093 -1300 0
-1082 1093 -1299 0
-1082 1094 -1300 0
-1083 1094 -1299 0
-1083 1095 -1300 0
-1084 1095 -1299 0
-1084 1096 -1300 0
-1085 1096 -1299 0
-1085 1097 -1300 0
-1086 1097 -1299 0
-1086 1098 -1300 0
-1087 1098 -1299 0
-1087 1099 -1300 0
-1088 1099 -1299 0
-1088 1100 -1300 0
-1089 1100 -1299 0
-1089 1090 -1300 0
2 -1101 0
2 -1102 0
2 -1101 0
3 -1102 0
3 -1101 0
4 -1102 0
4 -1101 0
5 -1102 0
5 -1101 0
6 -1102 0
6 -1101 0
7 -1102 0
7 -1101 0
8 -1102 0
8 -1101 0
9 -1102 0
9 -1101 0
10 -1102 0
10 -1101 0
11 -1102 0
11 -1101 0
1 -1102 0
-1091 -1090 0
-1092 -1090 0
-1092 -1091 0
-1093 -1090 0
-1093 -1091 0
-1093 -1092 0
-1094 -1090 0
-1094 -1091 0
-1094 -1092 0
-1094 -1093 0
-1095 -1090 0
-1095 -1091 0
-1095 -1092 0
-1095 -1093 0
-1095 -1094 0
-1096 -1090 0
-1096 -1091 0
-1096 -1092 0
-1096 -1093 0
-1096 -1094 0
-1096 -1095 0
-1097 -1090 0
-1097 -1091 0
-1097 -1092 0
-1097 -1093 0
-1097 -1094 0
-1097 -1095 0
-1097 -1096 0
-1098 -1090 0
-1098 -1091 0
-1098 -1092 0
-1098 -1093 0
-1098 -1094 0
-1098 -1095 0
-1098 -1096 0
-1098 -1097 0
-1099 -1090 0
-1099 -1091 0
-1099 -1092 0
-1099 -1093 0
-1099 -1094 0
-1099 -1095 0
-1099 -1096 0
-1099 -1097 0
-1099 -1098 0
-1100 -1090 0
-1100 -1091 0
-1100 -1092 0
-1100 -1093 0
-1100 -1094 0
-1100 -1095 0
-1100 -1096 0
-1100 -1097 0
-1100 -1098 0
-1100 -1099 0
1101 1102 0
1103 1104 0
1105 1106 0
1107 1108 0
1109 1110 0
1111 1112 0
1113 1114 0
1115 1116 0
1117 1118 0
1119 1120 0
1121 1122 0
1123 1124 0
1125 1126 0
1127 1128 0
1129 1130 0
1131 1132 0
1133 1134 0
1135 1136 0
1137 1138 0
1139 1140 0
1141 1142 0
1143 1144 0
1145 1146 0
1147 1148 0
1149 1150 0
1151 1152 0
1153 1154 0
1155 1156 0
1157 1158 0
1159 1160 0
1161 1162 0
1163 1164 0
1165 1166 0
1167 1168 0
1169 1170 0
1171 1172 0
1173 1174 0
1175 1176 0
1177 1178 0
1179 1180 0
1181 1182 0
1183 1184 0
1185 1186 0
1187 1188 0
1189 1190 0
1191 1192 0
1193 1194 0
1195 1196 0
1197 1198 0
1199 1200 0
1201 1202 0
1203 1204 0
1205 1206 0
1207 1208 0
1209 1210 0
1211 1212 0
1213 1214 0
1215 1216 0
1217 1218 0
1219 1220 0
1221 1222 0
1223 1224 0
1225 1226 0
1227 1228 0
1229 1230 0
1231 1232 0
1233 1234 0
1235 1236 0
1237 1238 0
1239 1240 0
1241 1242 0
1243 1244 0
1245 1246 0
1247 1248 0
1249 1250 0
1251 1252 0
1253 1254 0
1255 1256 0
1257 1258 0
1259 1260 0
1261 1262 0
1263 1264 0
1265 1266 0
1267 1268 0
1269 1270 0
1271 1272 0
1273 1274 0
1275 1276 0
1277 1278 0
1279 1280 0
1281 1282 0
1283 1284 0
1285 1286 0
1287 1288 0
1289 1290 0
1291 1292 0
1293 1294 0
1295 1296 0
1297 1298 0
1299 1300 0
